//Dat File

outFile="MPVSBPP_SET1_IT200_ITV2_NT1_TS3_WT1_VT1_REP10";
m=200;
o=42;
p=3;
numVTypes=1;

demand = [11, 5, 4, 8, 9, 7, 2, 7, 11, 9, 9, 9, 11, 4, 3, 6, 1, 7, 2, 4, 10, 7, 7, 9, 3, 9, 11, 7, 2, 9, 7, 2, 11, 8, 11, 2, 4, 10, 2, 1, 11, 7, 3, 1, 8, 9, 1, 1, 10, 7, 6, 8, 3, 8, 8, 9, 10, 7, 10, 9, 2, 4, 2, 4, 3, 11, 9, 8, 1, 3, 8, 1, 8, 8, 2, 8, 7, 1, 2, 10, 6, 1, 4, 9, 2, 7, 4, 8, 1, 11, 10, 7, 5, 7, 6, 9, 11, 3, 6, 2, 16, 15, 16, 17, 17, 12, 19, 16, 14, 14, 16, 16, 13, 13, 12, 17, 12, 16, 12, 12, 19, 13, 18, 16, 12, 18, 18, 19, 15, 15, 12, 15, 15, 19, 18, 12, 12, 17, 13, 17, 19, 19, 16, 15, 16, 16, 18, 14, 17, 14, 14, 13, 19, 15, 15, 12, 13, 17, 15, 17, 15, 15, 19, 14, 18, 13, 17, 12, 16, 19, 15, 18, 16, 16, 17, 19, 13, 18, 17, 19, 13, 15, 15, 12, 16, 17, 14, 14, 12, 14, 19, 13, 13, 19, 16, 17, 18, 13, 16, 18];
Depot_Cap = [30000, 30000, 30000];
Tarif = [10, 3, 7];
VeicVolume = [100];
VeicCost = [100];
VeicType = [1, 1, 1, 1, 1, 1, 1, 1, 1, 1, 1, 1, 1, 1, 1, 1, 1, 1, 1, 1, 1, 1, 1, 1, 1, 1, 1, 1, 1, 1, 1, 1, 1, 1, 1, 1, 1, 1, 1, 1, 1, 1];
Elect_vehicle = [[70, 100, 30], [70, 100, 30], [70, 100, 30], [70, 100, 30], [70, 100, 30], [70, 100, 30], [70, 100, 30], [70, 100, 30], [70, 100, 30], [70, 100, 30], [70, 100, 30], [70, 100, 30], [70, 100, 30], [70, 100, 30], [70, 100, 30], [70, 100, 30], [70, 100, 30], [70, 100, 30], [70, 100, 30], [70, 100, 30], [70, 100, 30], [70, 100, 30], [70, 100, 30], [70, 100, 30], [70, 100, 30], [70, 100, 30], [70, 100, 30], [70, 100, 30], [70, 100, 30], [70, 100, 30], [70, 100, 30], [70, 100, 30], [70, 100, 30], [70, 100, 30], [70, 100, 30], [70, 100, 30], [70, 100, 30], [70, 100, 30], [70, 100, 30], [70, 100, 30], [70, 100, 30], [70, 100, 30]];